#--------------------------- Simulation variables -----------------------------#
  variable         n equal 8 # System size.
#------------------------------------------------------------------------------#


#---------------------------- Atomic setup ------------------------------------#
  units            metal

  # Create atoms.
  lattice          sc 1.0
  region           sim_box block 0 ${n} 0 ${n} 0 ${n}
  create_box       1 sim_box
  create_atoms     1 box

  # Interatomic potential information.
  pair_style       none
#------------------------------------------------------------------------------#


#----------------------------- Run simulation ---------------------------------#
  write_dump       all custom data/sc.gz id type x y z
#------------------------------------------------------------------------------#